c This is an instance of the exact track of PACE 2020 Challenge, see https://pacechallenge.org/2020/ 
c TYPE: generated 
c ORIGIN: Python networkx package 
c DESCRIPTION: A random cubic graph generated using random_regular_graph function from Python’s networkx package 
p tdp 160 240
1 2
1 157
1 153
2 39
2 107
3 4
3 96
3 47
4 13
4 97
5 6
5 136
5 151
6 25
6 43
7 8
7 50
7 11
8 91
8 136
9 10
9 138
9 119
10 81
10 97
11 12
11 17
12 47
12 92
13 14
13 62
14 102
14 114
15 16
15 37
15 146
16 137
16 65
17 18
17 141
18 146
18 156
19 20
19 36
19 115
20 124
20 44
21 22
21 61
21 122
22 133
22 125
23 24
23 139
23 114
24 65
24 70
25 104
25 85
26 27
26 67
26 68
27 40
27 159
28 29
28 44
28 46
29 32
29 74
30 31
30 59
30 103
31 105
31 49
32 33
32 146
33 39
33 67
34 35
34 80
34 107
35 51
35 75
36 54
36 138
37 38
37 143
38 56
38 90
39 88
40 144
40 87
41 42
41 91
41 133
42 62
42 82
43 58
43 94
44 45
45 48
45 134
46 47
46 129
48 49
48 116
49 76
50 112
50 150
51 82
51 55
52 53
52 79
52 129
53 156
53 100
54 63
54 153
55 56
55 144
56 86
57 58
57 94
57 72
58 86
59 102
59 155
60 61
60 62
60 149
61 88
63 64
63 140
64 102
64 124
65 120
66 67
66 121
66 134
68 69
68 127
69 89
69 111
70 71
70 130
71 103
71 104
72 73
72 139
73 117
73 125
74 75
74 137
75 159
76 83
76 113
77 78
77 141
77 157
78 110
78 130
79 80
79 120
80 147
81 126
81 147
82 93
83 110
83 128
84 85
84 150
84 123
85 122
86 87
87 144
88 89
89 152
90 91
90 152
92 93
92 140
93 151
94 104
95 96
95 135
95 149
96 149
97 99
98 99
98 137
98 138
99 129
100 101
100 116
101 113
101 118
103 120
105 106
105 108
106 140
106 160
107 159
108 109
108 121
109 119
109 112
110 128
111 112
111 158
113 150
114 115
115 128
116 132
117 118
117 155
118 119
121 160
122 123
123 157
124 154
125 126
126 145
127 131
127 158
130 156
131 145
131 142
132 142
132 153
133 135
134 145
135 151
136 141
139 152
142 143
143 148
147 148
148 155
154 160
154 158
